outputs/case_117.model.txt
risk_of_harming_insured_rights = False
unable_to_pay_debts = True
is_manager = False
company_law_procedure_exempted = False
procurement_law_exempted = True
legal_person = True
financial_or_business_condition_significantly_deteriorated = True
reorganization_application_filed = False
other_major_financial_impact = False
person_type = 1
net_worth = 100
level_4_measures_done = False
is_assistant_manager = False
level_3_measures_done = True
is_director = False
contract_or_major_commitment_made = False
NWR = 3/2
unable_to_fulfill_contracts = False
natural_person = True
shareholding_percentage_including_spouse_and_minor_children = 10
is_supervisor = True
payment_amount = 0
is_deputy_general_manager = False
is_general_manager = False
is_equivalent_position = False
improvement_plan_submitted = False
deadline_extended_or_plan_resubmitted = False
capital_increase_or_improvement_plan_completed = False
supervision_limit = 1000000
degree_of_kinship = 0
improvement_plan_executed = False
CAR = 120
supervision_delegate_assigned = True
other_transaction_limit_complied = True
is_responsible_person_of_enterprise = True
related_person_same = True
company_law_369_9_compliant = True
other_transaction_must_follow_procedures = True
reorganization_application_ok = False
level_4_measures_executed = False
level_2_measures_executed = False
responsible_person_defined = True
other_transaction_scope_defined_by_authority = True
company_law_369_11_compliant = True
supervision_delegate_ok = True
related_person_scope_defined = True
voting_rights_record_reported = True
supervision_measures_deadline_extended = False
prohibited_equity_exchange = True
level_3_measures_executed = True
company_law_369_1_to_369_3_compliant = True
supervision_restrictions_complied = True
major_shareholder_defined = True
insured_interest_protected = True
is_related_enterprise = True
procurement_law_not_applicable = True
proxy_request_prohibited = True
is_subsidiary_responsible_person = True
related_person_scope_ok = True
other_transaction_limit_ok = True
insured_interest_not_harmed = True
related_enterprise_scope_ok = True
receivership_procedure_exempted = False
is_self_or_spouse = True
voting_rights_record_submitted = True
equity_exchange_or_benefit_transfer = False
capital_level = 3
proxy_requester_agent = False
supervision_inspection_applied = True
is_responsible_person_enterprise = True
voting_rights_evaluation_done = True
penalty = False
proxy_requester = False
is_responsible_person_or_major_shareholder = True
supervision_measures_applicable = True
inspection_rules_applied = True
voting_rights_evaluation_reported = True